60

 0   1   2   3   1   2   3   4   2   3   4   5   3   4   5   6   4   5   6   7   5   6   7   8   6   7   8   9   7   8   9  10   8   9  10  11   9  10  11  12  10  11  12  13  11  12  13  14  12  13  14  15  13  14  15  16  14  15  16  17  
 1   0   1   2   2   1   2   3   3   2   3   4   4   3   4   5   5   4   5   6   6   5   6   7   7   6   7   8   8   7   8   9   9   8   9  10  10   9  10  11  11  10  11  12  12  11  12  13  13  12  13  14  14  13  14  15  15  14  15  16  
 2   1   0   1   3   2   1   2   4   3   2   3   5   4   3   4   6   5   4   5   7   6   5   6   8   7   6   7   9   8   7   8  10   9   8   9  11  10   9  10  12  11  10  11  13  12  11  12  14  13  12  13  15  14  13  14  16  15  14  15  
 3   2   1   0   4   3   2   1   5   4   3   2   6   5   4   3   7   6   5   4   8   7   6   5   9   8   7   6  10   9   8   7  11  10   9   8  12  11  10   9  13  12  11  10  14  13  12  11  15  14  13  12  16  15  14  13  17  16  15  14  
 1   2   3   4   0   1   2   3   1   2   3   4   2   3   4   5   3   4   5   6   4   5   6   7   5   6   7   8   6   7   8   9   7   8   9  10   8   9  10  11   9  10  11  12  10  11  12  13  11  12  13  14  12  13  14  15  13  14  15  16  
 2   1   2   3   1   0   1   2   2   1   2   3   3   2   3   4   4   3   4   5   5   4   5   6   6   5   6   7   7   6   7   8   8   7   8   9   9   8   9  10  10   9  10  11  11  10  11  12  12  11  12  13  13  12  13  14  14  13  14  15  
 3   2   1   2   2   1   0   1   3   2   1   2   4   3   2   3   5   4   3   4   6   5   4   5   7   6   5   6   8   7   6   7   9   8   7   8  10   9   8   9  11  10   9  10  12  11  10  11  13  12  11  12  14  13  12  13  15  14  13  14  
 4   3   2   1   3   2   1   0   4   3   2   1   5   4   3   2   6   5   4   3   7   6   5   4   8   7   6   5   9   8   7   6  10   9   8   7  11  10   9   8  12  11  10   9  13  12  11  10  14  13  12  11  15  14  13  12  16  15  14  13  
 2   3   4   5   1   2   3   4   0   1   2   3   1   2   3   4   2   3   4   5   3   4   5   6   4   5   6   7   5   6   7   8   6   7   8   9   7   8   9  10   8   9  10  11   9  10  11  12  10  11  12  13  11  12  13  14  12  13  14  15  
 3   2   3   4   2   1   2   3   1   0   1   2   2   1   2   3   3   2   3   4   4   3   4   5   5   4   5   6   6   5   6   7   7   6   7   8   8   7   8   9   9   8   9  10  10   9  10  11  11  10  11  12  12  11  12  13  13  12  13  14  
 4   3   2   3   3   2   1   2   2   1   0   1   3   2   1   2   4   3   2   3   5   4   3   4   6   5   4   5   7   6   5   6   8   7   6   7   9   8   7   8  10   9   8   9  11  10   9  10  12  11  10  11  13  12  11  12  14  13  12  13  
 5   4   3   2   4   3   2   1   3   2   1   0   4   3   2   1   5   4   3   2   6   5   4   3   7   6   5   4   8   7   6   5   9   8   7   6  10   9   8   7  11  10   9   8  12  11  10   9  13  12  11  10  14  13  12  11  15  14  13  12  
 3   4   5   6   2   3   4   5   1   2   3   4   0   1   2   3   1   2   3   4   2   3   4   5   3   4   5   6   4   5   6   7   5   6   7   8   6   7   8   9   7   8   9  10   8   9  10  11   9  10  11  12  10  11  12  13  11  12  13  14  
 4   3   4   5   3   2   3   4   2   1   2   3   1   0   1   2   2   1   2   3   3   2   3   4   4   3   4   5   5   4   5   6   6   5   6   7   7   6   7   8   8   7   8   9   9   8   9  10  10   9  10  11  11  10  11  12  12  11  12  13  
 5   4   3   4   4   3   2   3   3   2   1   2   2   1   0   1   3   2   1   2   4   3   2   3   5   4   3   4   6   5   4   5   7   6   5   6   8   7   6   7   9   8   7   8  10   9   8   9  11  10   9  10  12  11  10  11  13  12  11  12  
 6   5   4   3   5   4   3   2   4   3   2   1   3   2   1   0   4   3   2   1   5   4   3   2   6   5   4   3   7   6   5   4   8   7   6   5   9   8   7   6  10   9   8   7  11  10   9   8  12  11  10   9  13  12  11  10  14  13  12  11  
 4   5   6   7   3   4   5   6   2   3   4   5   1   2   3   4   0   1   2   3   1   2   3   4   2   3   4   5   3   4   5   6   4   5   6   7   5   6   7   8   6   7   8   9   7   8   9  10   8   9  10  11   9  10  11  12  10  11  12  13  
 5   4   5   6   4   3   4   5   3   2   3   4   2   1   2   3   1   0   1   2   2   1   2   3   3   2   3   4   4   3   4   5   5   4   5   6   6   5   6   7   7   6   7   8   8   7   8   9   9   8   9  10  10   9  10  11  11  10  11  12  
 6   5   4   5   5   4   3   4   4   3   2   3   3   2   1   2   2   1   0   1   3   2   1   2   4   3   2   3   5   4   3   4   6   5   4   5   7   6   5   6   8   7   6   7   9   8   7   8  10   9   8   9  11  10   9  10  12  11  10  11  
 7   6   5   4   6   5   4   3   5   4   3   2   4   3   2   1   3   2   1   0   4   3   2   1   5   4   3   2   6   5   4   3   7   6   5   4   8   7   6   5   9   8   7   6  10   9   8   7  11  10   9   8  12  11  10   9  13  12  11  10  
 5   6   7   8   4   5   6   7   3   4   5   6   2   3   4   5   1   2   3   4   0   1   2   3   1   2   3   4   2   3   4   5   3   4   5   6   4   5   6   7   5   6   7   8   6   7   8   9   7   8   9  10   8   9  10  11   9  10  11  12  
 6   5   6   7   5   4   5   6   4   3   4   5   3   2   3   4   2   1   2   3   1   0   1   2   2   1   2   3   3   2   3   4   4   3   4   5   5   4   5   6   6   5   6   7   7   6   7   8   8   7   8   9   9   8   9  10  10   9  10  11  
 7   6   5   6   6   5   4   5   5   4   3   4   4   3   2   3   3   2   1   2   2   1   0   1   3   2   1   2   4   3   2   3   5   4   3   4   6   5   4   5   7   6   5   6   8   7   6   7   9   8   7   8  10   9   8   9  11  10   9  10  
 8   7   6   5   7   6   5   4   6   5   4   3   5   4   3   2   4   3   2   1   3   2   1   0   4   3   2   1   5   4   3   2   6   5   4   3   7   6   5   4   8   7   6   5   9   8   7   6  10   9   8   7  11  10   9   8  12  11  10   9  
 6   7   8   9   5   6   7   8   4   5   6   7   3   4   5   6   2   3   4   5   1   2   3   4   0   1   2   3   1   2   3   4   2   3   4   5   3   4   5   6   4   5   6   7   5   6   7   8   6   7   8   9   7   8   9  10   8   9  10  11  
 7   6   7   8   6   5   6   7   5   4   5   6   4   3   4   5   3   2   3   4   2   1   2   3   1   0   1   2   2   1   2   3   3   2   3   4   4   3   4   5   5   4   5   6   6   5   6   7   7   6   7   8   8   7   8   9   9   8   9  10  
 8   7   6   7   7   6   5   6   6   5   4   5   5   4   3   4   4   3   2   3   3   2   1   2   2   1   0   1   3   2   1   2   4   3   2   3   5   4   3   4   6   5   4   5   7   6   5   6   8   7   6   7   9   8   7   8  10   9   8   9  
 9   8   7   6   8   7   6   5   7   6   5   4   6   5   4   3   5   4   3   2   4   3   2   1   3   2   1   0   4   3   2   1   5   4   3   2   6   5   4   3   7   6   5   4   8   7   6   5   9   8   7   6  10   9   8   7  11  10   9   8  
 7   8   9  10   6   7   8   9   5   6   7   8   4   5   6   7   3   4   5   6   2   3   4   5   1   2   3   4   0   1   2   3   1   2   3   4   2   3   4   5   3   4   5   6   4   5   6   7   5   6   7   8   6   7   8   9   7   8   9  10  
 8   7   8   9   7   6   7   8   6   5   6   7   5   4   5   6   4   3   4   5   3   2   3   4   2   1   2   3   1   0   1   2   2   1   2   3   3   2   3   4   4   3   4   5   5   4   5   6   6   5   6   7   7   6   7   8   8   7   8   9  
 9   8   7   8   8   7   6   7   7   6   5   6   6   5   4   5   5   4   3   4   4   3   2   3   3   2   1   2   2   1   0   1   3   2   1   2   4   3   2   3   5   4   3   4   6   5   4   5   7   6   5   6   8   7   6   7   9   8   7   8  
10   9   8   7   9   8   7   6   8   7   6   5   7   6   5   4   6   5   4   3   5   4   3   2   4   3   2   1   3   2   1   0   4   3   2   1   5   4   3   2   6   5   4   3   7   6   5   4   8   7   6   5   9   8   7   6  10   9   8   7  
 8   9  10  11   7   8   9  10   6   7   8   9   5   6   7   8   4   5   6   7   3   4   5   6   2   3   4   5   1   2   3   4   0   1   2   3   1   2   3   4   2   3   4   5   3   4   5   6   4   5   6   7   5   6   7   8   6   7   8   9  
 9   8   9  10   8   7   8   9   7   6   7   8   6   5   6   7   5   4   5   6   4   3   4   5   3   2   3   4   2   1   2   3   1   0   1   2   2   1   2   3   3   2   3   4   4   3   4   5   5   4   5   6   6   5   6   7   7   6   7   8  
10   9   8   9   9   8   7   8   8   7   6   7   7   6   5   6   6   5   4   5   5   4   3   4   4   3   2   3   3   2   1   2   2   1   0   1   3   2   1   2   4   3   2   3   5   4   3   4   6   5   4   5   7   6   5   6   8   7   6   7  
11  10   9   8  10   9   8   7   9   8   7   6   8   7   6   5   7   6   5   4   6   5   4   3   5   4   3   2   4   3   2   1   3   2   1   0   4   3   2   1   5   4   3   2   6   5   4   3   7   6   5   4   8   7   6   5   9   8   7   6  
 9  10  11  12   8   9  10  11   7   8   9  10   6   7   8   9   5   6   7   8   4   5   6   7   3   4   5   6   2   3   4   5   1   2   3   4   0   1   2   3   1   2   3   4   2   3   4   5   3   4   5   6   4   5   6   7   5   6   7   8  
10   9  10  11   9   8   9  10   8   7   8   9   7   6   7   8   6   5   6   7   5   4   5   6   4   3   4   5   3   2   3   4   2   1   2   3   1   0   1   2   2   1   2   3   3   2   3   4   4   3   4   5   5   4   5   6   6   5   6   7  
11  10   9  10  10   9   8   9   9   8   7   8   8   7   6   7   7   6   5   6   6   5   4   5   5   4   3   4   4   3   2   3   3   2   1   2   2   1   0   1   3   2   1   2   4   3   2   3   5   4   3   4   6   5   4   5   7   6   5   6  
12  11  10   9  11  10   9   8  10   9   8   7   9   8   7   6   8   7   6   5   7   6   5   4   6   5   4   3   5   4   3   2   4   3   2   1   3   2   1   0   4   3   2   1   5   4   3   2   6   5   4   3   7   6   5   4   8   7   6   5  
10  11  12  13   9  10  11  12   8   9  10  11   7   8   9  10   6   7   8   9   5   6   7   8   4   5   6   7   3   4   5   6   2   3   4   5   1   2   3   4   0   1   2   3   1   2   3   4   2   3   4   5   3   4   5   6   4   5   6   7  
11  10  11  12  10   9  10  11   9   8   9  10   8   7   8   9   7   6   7   8   6   5   6   7   5   4   5   6   4   3   4   5   3   2   3   4   2   1   2   3   1   0   1   2   2   1   2   3   3   2   3   4   4   3   4   5   5   4   5   6  
12  11  10  11  11  10   9  10  10   9   8   9   9   8   7   8   8   7   6   7   7   6   5   6   6   5   4   5   5   4   3   4   4   3   2   3   3   2   1   2   2   1   0   1   3   2   1   2   4   3   2   3   5   4   3   4   6   5   4   5  
13  12  11  10  12  11  10   9  11  10   9   8  10   9   8   7   9   8   7   6   8   7   6   5   7   6   5   4   6   5   4   3   5   4   3   2   4   3   2   1   3   2   1   0   4   3   2   1   5   4   3   2   6   5   4   3   7   6   5   4  
11  12  13  14  10  11  12  13   9  10  11  12   8   9  10  11   7   8   9  10   6   7   8   9   5   6   7   8   4   5   6   7   3   4   5   6   2   3   4   5   1   2   3   4   0   1   2   3   1   2   3   4   2   3   4   5   3   4   5   6  
12  11  12  13  11  10  11  12  10   9  10  11   9   8   9  10   8   7   8   9   7   6   7   8   6   5   6   7   5   4   5   6   4   3   4   5   3   2   3   4   2   1   2   3   1   0   1   2   2   1   2   3   3   2   3   4   4   3   4   5  
13  12  11  12  12  11  10  11  11  10   9  10  10   9   8   9   9   8   7   8   8   7   6   7   7   6   5   6   6   5   4   5   5   4   3   4   4   3   2   3   3   2   1   2   2   1   0   1   3   2   1   2   4   3   2   3   5   4   3   4  
14  13  12  11  13  12  11  10  12  11  10   9  11  10   9   8  10   9   8   7   9   8   7   6   8   7   6   5   7   6   5   4   6   5   4   3   5   4   3   2   4   3   2   1   3   2   1   0   4   3   2   1   5   4   3   2   6   5   4   3  
12  13  14  15  11  12  13  14  10  11  12  13   9  10  11  12   8   9  10  11   7   8   9  10   6   7   8   9   5   6   7   8   4   5   6   7   3   4   5   6   2   3   4   5   1   2   3   4   0   1   2   3   1   2   3   4   2   3   4   5  
13  12  13  14  12  11  12  13  11  10  11  12  10   9  10  11   9   8   9  10   8   7   8   9   7   6   7   8   6   5   6   7   5   4   5   6   4   3   4   5   3   2   3   4   2   1   2   3   1   0   1   2   2   1   2   3   3   2   3   4  
14  13  12  13  13  12  11  12  12  11  10  11  11  10   9  10  10   9   8   9   9   8   7   8   8   7   6   7   7   6   5   6   6   5   4   5   5   4   3   4   4   3   2   3   3   2   1   2   2   1   0   1   3   2   1   2   4   3   2   3  
15  14  13  12  14  13  12  11  13  12  11  10  12  11  10   9  11  10   9   8  10   9   8   7   9   8   7   6   8   7   6   5   7   6   5   4   6   5   4   3   5   4   3   2   4   3   2   1   3   2   1   0   4   3   2   1   5   4   3   2  
13  14  15  16  12  13  14  15  11  12  13  14  10  11  12  13   9  10  11  12   8   9  10  11   7   8   9  10   6   7   8   9   5   6   7   8   4   5   6   7   3   4   5   6   2   3   4   5   1   2   3   4   0   1   2   3   1   2   3   4  
14  13  14  15  13  12  13  14  12  11  12  13  11  10  11  12  10   9  10  11   9   8   9  10   8   7   8   9   7   6   7   8   6   5   6   7   5   4   5   6   4   3   4   5   3   2   3   4   2   1   2   3   1   0   1   2   2   1   2   3  
15  14  13  14  14  13  12  13  13  12  11  12  12  11  10  11  11  10   9  10  10   9   8   9   9   8   7   8   8   7   6   7   7   6   5   6   6   5   4   5   5   4   3   4   4   3   2   3   3   2   1   2   2   1   0   1   3   2   1   2  
16  15  14  13  15  14  13  12  14  13  12  11  13  12  11  10  12  11  10   9  11  10   9   8  10   9   8   7   9   8   7   6   8   7   6   5   7   6   5   4   6   5   4   3   5   4   3   2   4   3   2   1   3   2   1   0   4   3   2   1  
14  15  16  17  13  14  15  16  12  13  14  15  11  12  13  14  10  11  12  13   9  10  11  12   8   9  10  11   7   8   9  10   6   7   8   9   5   6   7   8   4   5   6   7   3   4   5   6   2   3   4   5   1   2   3   4   0   1   2   3  
15  14  15  16  14  13  14  15  13  12  13  14  12  11  12  13  11  10  11  12  10   9  10  11   9   8   9  10   8   7   8   9   7   6   7   8   6   5   6   7   5   4   5   6   4   3   4   5   3   2   3   4   2   1   2   3   1   0   1   2  
16  15  14  15  15  14  13  14  14  13  12  13  13  12  11  12  12  11  10  11  11  10   9  10  10   9   8   9   9   8   7   8   8   7   6   7   7   6   5   6   6   5   4   5   5   4   3   4   4   3   2   3   3   2   1   2   2   1   0   1  
17  16  15  14  16  15  14  13  15  14  13  12  14  13  12  11  13  12  11  10  12  11  10   9  11  10   9   8  10   9   8   7   9   8   7   6   8   7   6   5   7   6   5   4   6   5   4   3   5   4   3   2   4   3   2   1   3   2   1   0  

 0   0   1   0  12   0   0   0   0  12   0  15   1   1   0   1   0  81   0   3  19   0   0   1   0   0   0   0  57   5   0   1   0   0   1   0   0   0   0   7   1   0  97  22   0   0   0   1   0   0   0   1   0   0   0   0   1  16  20   1  
 0   0   5   0   0   0   6   0   1  65   1   3   1   1   1   0   0   0   0  26   0   0  47  48   0  14   0   0   4  69   1   0   0   0   1   0   0  59   1   0   3  92  47   0   1   0   0   0   0   0   0   0   0   0   0   0   3   0   0  18  
 1   1   0   0   0   0   0   1   1   0   2   0  77   1  10   2   0   1  11   0   0   0   0  93  37   0  96   1   0   0  24   0   0  17   0   1   1   0   1   0   1   8   0   0   0   0  30   1   0  84   1  88   0   1  79   1   0   0   5  11  
 0   0   1   0   1   0   0  29   4   0   0   5   0  20   0  65   1   0   1  11   0   0   0  33   0   0   0   1   0   1   0   0   0   0   0   0   0  65   0   7   0   1  72   0   0   0   0   0   1   0   1   0   2   4  31   1  19   0  28   0  
90   0   0   5   0   1   0   0   0   0   0   3  80   0   1   1   1   0   0   0  51   0   9   0   9   5   0   0   0   1   5  38  37   4   2   1   0  16   8  61   0   0   0   0   1   0   0   0   1   1   0   0   0   0   0   0   0   6   7   0  
 0   0   1   0   0   0   0  41   0   0   1   0   0  27   1   1   0  10  58  34   0  87   1   0  36  52   1   0   0   0   1   4   1  22   1   0   0   0   0  54   0   0   0   0   0   3   0   0   7   1   0   0   3   0   0   1   0   0   1  20  
43   0   0  17   1   0   0   0  41   1   6   0  44   1   0   0   0   0   0   0   0   3   0   1   9   0   0   0   0   0  37  34   0   1   0   1   0  16   5  15   1   0   0   0   0  53   0   8   9   0   0   0  90   0   0   1   1   0   0   0  
 0   0   1  14   0   1   2   0  70   1   0  43   0   0   0   0   0  18   0   3   0   0   0   0  61   1   0   0   9   0   1   9   0   0   0   0   0   0   0   1   0   0   0   7   0   0   4   0  64   0   0   0   1   0  26  40   1   0  42   0  
10   0   0   0   0   0  73   0   0   0   1   8   0   0   0   5   1   2   0  13   0  20   1   0  77   0   1  15   0  26   0   0   0   0   0  53  12   0   0   0  64   0  66   0   0   0  31   0   0  85   7   5   1   1   0   0   0   1   9   0  
 0   0  65  25   0  58   1   0  13   0   3  22   0  18   0   0   1   1   0   0   0   1   1  25   8   0   7   0   0   0   1   0  13   1  35   0   0   0   0   2   0  19   1   0   0   1   0   0  75   0   0   1   0   0  22   0   0   1   0  17  
52  55   0   1   0   0   1   1   0  19   0   1  27   1   0   0   6   0   0  29   0   0   0  11   0  16  65   0   7   1   0  83   1   1   1   0   1   0   0   0   9   1   1   0   0   1   1   0  55   0   1   0   0   0   0  19  23  16   0   0  
 0   0   1   0  26   0   1   0   0   9   1   0   5  20  35   1   0   0   0   0  23  64   0   0   0   1   0   0  20   0   7   0   1  95   0   0   0   1   0   6  71   0   0   0   0   0   0   0   7  83   0   1  30   0   0   0   0   0   1   0  
 0   0   9   0   1   1   8   1   0   1   1  28   0   0  10   0   0   0   1   0   0   0   0  84   0   0   0   1   2   1  24   1   0   3   0   0   0   1   0   1  14   0  84   0   0   0   1  47   0   1   0   0   2   0   0   1   0   0   0   7  
 1   1   1   1   1   1   0   0  71  27   1  10   3   0   0   1   0   0   0  72   1   0   0   0   0   0   0   1   0   0   0   0   0   1  49   0   0  47  57  15   3   0   0   1  46   0   0  15   0   0   0   0   1  40   1   0   0   1   0   0  
 1  82   0   0   0   0   0  35   0   0   0  81   0   0   0  48   0   0   0   1   0   0  30   1   0   6   1   1   8   0  80   1   0   2   0   0   0   0   0   0   1   0   0   0   0   0   0   0  13  87   0  38   1   6  24  74   0   8   0   0  
 3  76   1   0   1   0   0   0   1  13   0   0   0   1   1   0   0   1   1   0   1   1   0   0   0   0   1   0   1   2   1   1   1   1   0   0   0  24   3   0  60   0   1   0   0   0   0   0   1   0   0   0  49   3   1   0   0   0  16   1  
 0   0   0   0   1   1   3  53   1  91   1   0   1   1   0   0   0   0   0   1   0   9  20  36   0   7  39   0   1  49   1   0   0   0   0   0   3   1  78   1   0   0  22   0   0   0   1  42   0   1   0   1   3  39   0   1   1  15  17   0  
 0   1   0   1   1   1   0   0   6   9   0  27   0   0  63   1  10   0   1   0   0   0   1   3   1   0  18   0   1   0   1   1   0   0  27  17   0   1   1   1   1   0   0  94   0   0   1   1   1   0   1  16   0   0   0   0   0   0   1  57  
 0   0   0   0   3   0   0   0   0   1   0   1   0   0   0   0  89   0   0   0  74   0  24   1   0   0   0   0   1   0   1   1   1   0   0  81   0   0   0  22   1   1   0   1   0   4   0   0   0   3   0   3  59   7   4   3   2   0   0   0  
 0   0   0  13   0   0   0   0   0   0  50   0   0  15   1   0   0   0   0   0   0  90   0   0   0  63   0   0   0   0   0   1   0   0   1  53   0   0   5   1   0   1  70   0   0  37   0   0  56   0   0   0   2   1   1   0   1   1   1   0  
 0   1   2   0  41   2   1   4   0   1   0   0   0   0   0   0   0   1   0   1   0  13   0   0  73   0   0   0   0   0   0   0   1   1   1   1   0   0   0  46   6   0   0   1   1   0   1   0   0   0  10   1   1   0   0   9   0   0   1   0  
 1   0   0   1   0   0   0   0   0   0   0   1   1  38   5   0   0   0   0   0   1   0   0   0  59   2   0  75   0   0   0  33   0   0   8   0   1  57   0  14  57  12   0   6   0   0   1   0   0   0   0   0   6   0   0   0   5  18  45   0  
 0   0  30   0  96   0   1   1   0   0   0   0  16   0   0   1   0   0   0  12   0   0   0   0   0   0   0   0  65   0   0   0   1   0   1   0   0  85   1   0   0  84   0  51   1   0   1   0   0   0   0   0   0   1   1  35   0  63   0   3  
24   0   0   0   1   1   0   0  10   1   0   0   7   0  20   0   2   0   1   0   1   1   0   0   1  91   0   0   0  67   0   0  28   5   1   0   1   0   1   0   0   0   0   9   1  14   1   0   0   0   0  27   0   1   0   0   0  25   1   6  
 0   1   0   0  19   0   0   0   0   0   0   0   0   0   0   0   0   0   0   1   1   0   0   0   0   0   0   0   0   0   0   0   1   0   0  18   1   1   1   1  73  44   1   0  22   0   0   0   0   0  77   0  43   0   0   0   0   0  84  79  
 1   1   0   0  31  22   0   5   0   0  30   0  25   0   1   0   1   1   1   4   1  38  50   1   1   0   0   0   0   2   1   0  20   1   0   0   0   1   0   0   1   0   0   0   6   0   1  26   0   1   0   0   0   0   0  87   0   0   1   0  
 0   3  43   0   3   0   1   4   0   1   0   0  82   1   0   0   0   0   0  28   1   0   0   2   0  62   0   0   1   0   0   0   0   0   0   5   0   1   1   0   0   1   0  48   0   0  89   0   1   0   6   0   0   0   1   2   0  21   0  17  
 0   0   0   0   1   1   1   0   0   0   1   1   2   0   0   1   0   0  84   0   0   3   1  15   1   0   0   0   0   9  30  21   0   0   6   1  72  71   0  13   0   0   0  12   0   0  20   0   0  81   2   0   2   0   0   1   0   1   0   0  
 9  43   1   1   0   0   6   0   0   0  36   0   0   0   0   1   0   0  98   0   1  26   0  68   0   0   0  38   0   3  71   0   0   0   0   1   0   1   1   5   1   0  92   0  77  88   0   0  19   3   0  42   0   0  74   0   0  32  27   0  
 0  24  99  12   0   0  23   1   0   0   0   0   0   0   0  40   0   1   0   0   1   0   0   0   1   0   0   0  95   0   1   5   1   1   0  79   0   0  15   0  43   0   0   0   1   1   0   0  20   0  17   1   0   4   1   8   0   1   0   0  
 5   0   0   1  21   1   1   0   1   0   0  42   0   0   0  14   0   5  43   0   1  41   0   1  12   1   8   0  10   4   0   6   0   1  96   1  11   1  55   0   0   0   0   0  33  40   0   1   0   0   1   0   9   0   1   0   0   0   0   1  
 0  94   0   0   0   0   1   0   4   0   0   0   5   7   0   0   0   0  31  10  96  76   0  97   0   0   0  50  83   1   0   0   0   0   0   0   1  13   0   0   0   0  14   0   1   0   1  94   0   0  26   2   1  68   0   0   1   0   1   1  
52   0   0  20  20   1  22   0   7   0   0   0   1   1   0   0   0   1   0   0   0   0   0  39   0   1   0   0   0   0   0   1   0  56   0  68   3   0  42  15   1  37   0   1   0   1  28   0   0   0   0   0   0   1   0   0   5   0   0   1  
 0   1   1   0   1   0   0   0   0   0   0  74   0   0   7   0   0   0   0  65   1   1   0   0   0   1   0  65   0  82   6   0   1   0   0   0   0   0  60   1   0   1  19   5   1   0   5   1   1   2   0   0   0   0   0   1   1   0   0  52  
 0  81   0   0   0   0  76   0   0  28   8  23   0   0   0  97   0   0  40   1   1   5   1   0   1   1   8   1   0   1  12  33   0   0   0   0  12   1   1   0   1   0  64   0   3   0   0   0   9  30   0   0   0   3   0   1   0   0   0   1  
 1   0   8   1  57   0   0   2   1   0   0  23   1   0  88   0   0   0   0   1   0  27   0   0  51   2  32   0   0   0   1   2   0   1   0   0   1   0   0   0  96  78   9   0   0   0   0   1   0   1   0  22   0   0   0   0   0   0  69  47  
52   0   0   0   0   1  55   0   0   1   0   0   0   0   0  47   1  30   0   1   1   1   1  96   6   0   1   0   1   0   0   2   0   1   0   0   0  17   0   0   0   0   0  57  86   1   5   0   8   7   2  54   0   1   0   0   1   0   2   0  
 3   0   0   0   0   0   0   0  50   0   0   0   0  26   0   0  45   0   0   0   1   0   1  52   1   0   5  66   8   1  21   0  26   1   0   1   1   0   0   0   1   1  48   1   0   0   0  33   3  81   0  59   0   0   0   0  21   1  28   0  
 3   0   1   0   0   0  25   1  41   0   0   1   1   0   5  24   0   0   1   2   5   0   0   0   0   3   5  34   0   1   0   0   0  64   1   0   5   0   0   7   0   0   0   0   0   0   0   0   0  38  82   1   0   0   1   0   0   1  24  25  
 1   2   0   0   1   0   0   0   0   0   0   0   0   0   0   0   0   1   0   0   0  82  17   8   0   0   0   0   0  24   0  19   1   0   0   8   0   1   0   0   0   0   6   0   0  15   5   0   7   0   1  49   0   0   0   0   0  92   1   0  
 0   1  32  16   0   1  13   0   0   6   1   0  54   0   0   0  26   0   0   0   0  92   0   1   0   0  46   0   0   0   1  76   0   0   0   0   2  96  70  85   0   0   4   0   0   1  82   1  10   2   1   4  13   0   0   1   0  23   0   0  
 0   2   0   1   0   0  35   1   1   1   0   0   0   0   5   2   0   0   0   0   0   1   0   0   0   1   0   0  93   0   3   0  22   0  34   1   0   0  14   0   0   0   0   0   0   0   0   0   0  68   0   0   1   1   0   1   1   0   0   0  
 1   3   1   0   1   0   6   0   1   1   2   0   0   1   0   0   1   0   0   0   1   0   4   0   0   0   1   0   1  11   0   0  43  98  17   0   1   0   0   0  54   1   0   0   0   0   1   0   1   0   1   0   1   0   1   0   1   1   0  21  
10   8   0   0   0   1   1   0   0   0   1   0   0  22   1   1   9  61  80   0   0   0   1   2   0   0   0   0   0   0   0   1   1   0   0   0   0   4   1   0  75   0   0   0   0   0   1   0  59  38   0   0   0   0   0   0  10   0   0   0  
35   0   0   0   0   0   0   0   0   0   2   0   0   0  59   0   0  98  42  93   0   0   1   0   1  26   0   0  18  78  54   0   0   0   1   0   0   0   0  28   0   0   1   1   0  85   0   1  22   0   1   0   0   0   8   1   0   0   2   1  
 1  18   0   0  11   1   0   0   1   0  41   1   0   1   4  96   1   0  15   0   0  30   0   7   0   0   0   1   0   0   0   0  10   0   0  36   0   1   0   0   1   6   0   0   1   0   0   0   1   0   0   0   0   0   0   0   1  17   1   0  
10   0   0   0  47   1  18   1   1   1   0  19   0   0  81   1   0   0  16   0   0   3   0   1   0   0   0  77   0   1   0   0   0  82   0   0   0   0   0   0   1   0   0  11   0  65   0   0   0   0   0   0   0   0   0   0   1   1   0  57  
 0   1   0   0   0  41   0   0   1   0  53   0   1   0   1   1   0   1   0   0   0   0   0   0   1   1   0  14   0   0  72   0   0   0   0   0   0  64   1   1   0   1   4  62   0   0  54   0  81   0   0   0   0   0   0   0   1   3   1   2  
 0  50   0  13   9   0   0   0   0   0  11   0   0  44   0   0   0  64   0   0   3   0   0   0   2   0  26   0   0  72  74  93   0   8   0   0   1  22   0   3   0   0   2   1   0   1   0   0   0  62   1   0   0   0   0   1   4   0   0   0  
 1  31   0   0   0   1  94   1   0   1   0   0   0   2  21   0  51  66   0   0   0   2   1   0   0   1   0   0   1  40   1   0   1   1   0   1  88  18  40  18   0   0   3   0  66   0   0   2   3   0   1   0   0   0   0   0   5   0   0   1  
 1   5   6   1   0   1   0   0   1   0   1   5   0   0   0   0  27  41   1  27  17  18  39   1  70   1   0   0   0   0   1   0   2   0   3   0   1   0   0   0   0   0   0  78   1   0  81   0  13   0   0   6   1   0   0   1   0  41   1  29  
89   1  90   8   1   0   1   0   0   0  59  70   1   1   1   1   1   1   0  42  35   0  14   0  79   0   1   0   0   1   7   0   0   0   0  13   0   0   0   0   0   0   0   1   1   0   0   0   0   0  36   0   0   1  89  23   2  32  18  10  
 2  60   0   0   0   0   2   1   0   0   0   0   1   0   0   0   4   0  42   0   0   0   0   0  37   0   0   0  92  76   7   0  26  44  42   0   0   0   0   1   0  16   0   0   3   1   0  56   1   0   8   1   0  38   0   0  98   0   1   0  
 0   1  65   0  63   1   0   5  26   1   0   1  47   5   0   0   0   1   0   0   1   2   0   0   0   0   1   2   0  53  75  26  59   1   0   0  10   0   9   0   6   0   2   0   0   1   0   0   6   0  10   0   2   0   7   1   7   0   1  22  
 0   0   2   0   0  86   1   0   0  10   0   0   7   1  24   1   0   2   0  52   0   0   0   0  56   0   0  12   0   0   1   0   0   0   7   0   0   0   1   0   3  33   3   0   0   1   0   1   1   0   0  30   0   1   0  72   1   1   0   3  
 0   0   0  80   2   0   0   1   1  28   1   1  28  21   0   0   0   0   2   0   1  10   0   1   0   0   0   5   0   0   1   0  19   0   0  10   0   1   0  19   0   1   0   0   0   0  14   0  16  11  25   0   0   1   0   0   1  45  29   0  
 0   1   0   0   0   0   0   0   0   0   0  17   0   0   0   0   0   4   0  35   0   0  68   0   1   0   0   5   0   1   1   1   0   0   1   0   0   0   0   0   0   0   0  54   0   1  78   0   0   0   0   0   0   1   2   1   0   0  24   0  
 0   0   0   0  48   0  69   0   0   0   0   1   0   0   0  12   0   5  25   0   2   0   0   0   0  14  17   0   0   0   1   0   0  43   1  44   0  16   0   0   0   0   0   0   0   2   0   1   1   0   0  97   0   1  82  16   0   0   1  14  
 0   0   0   0   0   0   0   0   0   0   0   0   0   1   0  95   0   0   0  95   0   0   1   1   3   5   1   1   0   0  55   0   1   0   0   0  17   6   0  47  49   0   0   4   3   0   1   0   0   1   4   0   0   4   1   5   0   0   0   1  
12  72  57  90  51   1  23   0   1   0   0   0   0   1  38  69  11   1   3   1  88   0  29   9   0   0  31   5   1   1   1   1  57  74   1   0   0  63   4  45   0   0   0  43   0   0  67   1   1   6   1   0   1   0   0  87   0   0   0   0  
